(set-logic QF_UFLIAFS)
(declare-fun content!16 () (FiniteSet Int))
(declare-fun alloc0!17 () (FiniteSet Int))
(declare-fun x1!18 () Int)
(declare-fun alloc1!19 () (FiniteSet Int))
(declare-fun x2!20 () Int)
(declare-fun alloc2!21 () (FiniteSet Int))
(declare-fun x3!22 () Int)
(assert
(and (subset content!16 alloc0!17)
     (subset (set.union alloc0!17 (set.singleton x1!18)) alloc1!19)
     (not (member x2!20 alloc1!19))
     (subset (set.union alloc1!19 (set.singleton x2!20)) alloc2!21)
     (not (member x3!22 alloc2!21))
     (distinct (set.size (set.union content!16
                                   (set.union (set.union (set.singleton x1!18)
                                                 (set.singleton x2!20))
                                          (set.singleton x3!22))))
               (+ (set.size content!16) 3)))
)
(check-sat)
